Running for instance ./models/r104.txt
Generating routes...
Execution time:  3.491527  seconds
Academic license - for non-commercial use only
Warning: constraint name "Cliente esta na rota x1" has a space
Optimize a model with 26 rows, 10000 columns and 59991 nonzeros
Variable types: 0 continuous, 10000 integer (0 binary)
Coefficient statistics:
  Matrix range     [1e+00, 1e+00]
  Objective range  [2e+01, 2e+02]
  Bounds range     [1e+00, 1e+00]
  RHS range        [1e+00, 2e+01]
Found heuristic solution: objective 718.1840385
Presolve removed 1 rows and 3027 columns
Presolve time: 0.07s
Presolved: 25 rows, 6973 columns, 35263 nonzeros
Found heuristic solution: objective 695.1686542
Variable types: 0 continuous, 6973 integer (6973 binary)

Root relaxation: objective 4.763417e+02, 101 iterations, 0.01 seconds

    Nodes    |    Current Node    |     Objective Bounds      |     Work
 Expl Unexpl |  Obj  Depth IntInf | Incumbent    BestBd   Gap | It/Node Time

     0     0  476.34173    0   19  695.16865  476.34173  31.5%     -    0s
H    0     0                     557.0967744  476.34173  14.5%     -    0s
H    0     0                     510.2329974  476.34173  6.64%     -    0s
     0     0  476.55146    0   24  510.23300  476.55146  6.60%     -    0s
     0     0  476.55146    0   24  510.23300  476.55146  6.60%     -    0s
H    0     0                     504.3983290  476.55146  5.52%     -    0s
     0     0  476.55146    0   24  504.39833  476.55146  5.52%     -    0s
H    0     0                     491.7383213  476.55146  3.09%     -    0s
*    0     0               0     477.5520581  477.55206  0.00%     -    0s

Explored 1 nodes (205 simplex iterations) in 0.19 seconds
Thread count was 8 (of 8 available processors)

Solution count 6: 477.552 491.738 504.398 ... 695.169

Optimal solution found (tolerance 1.00e-04)
Best objective 4.775520580765e+02, best bound 4.775520580765e+02, gap 0.0000%

Routes:
2 22 23 4 21
1 20 11 19 10 7
18 8 17 16 5 6
15 14 13
12 3 9 24 25

Distance: 477.552058076
Execution time:  4.552988  seconds
